p wcnf 269 716
w -2 0.367879 0
w 2 2.718282 0
w -3 0.367879 0
w 3 2.718282 0
w -4 0.367879 0
w 4 2.718282 0
w -5 0.367879 0
w 5 2.718282 0
w -6 0.367879 0
w 6 2.718282 0
w -8 0.367879 0
w 8 2.718282 0
w -9 0.367879 0
w 9 2.718282 0
w -10 0.367879 0
w 10 2.718282 0
w -11 0.367879 0
w 11 2.718282 0
w -13 0.367879 0
w 13 2.718282 0
w -14 0.367879 0
w 14 2.718282 0
w -15 0.367879 0
w 15 2.718282 0
w -17 0.367879 0
w 17 2.718282 0
w -18 0.367879 0
w 18 2.718282 0
w -19 0.367879 0
w 19 2.718282 0
w -20 0.367879 0
w 20 2.718282 0
w -21 0.367879 0
w 21 2.718282 0
w -22 0.367879 0
w 22 2.718282 0
w -23 0.367879 0
w 23 2.718282 0
w -25 0.367879 0
w 25 2.718282 0
w -26 0.367879 0
w 26 2.718282 0
w -27 0.367879 0
w 27 2.718282 0
w -28 0.367879 0
w 28 2.718282 0
w -29 0.367879 0
w 29 2.718282 0
w -31 0.367879 0
w 31 2.718282 0
w -32 0.367879 0
w 32 2.718282 0
w -33 0.367879 0
w 33 2.718282 0
w -34 0.367879 0
w 34 2.718282 0
w -36 0.367879 0
w 36 2.718282 0
w -37 0.367879 0
w 37 2.718282 0
w -38 0.367879 0
w 38 2.718282 0
w -40 0.367879 0
w 40 2.718282 0
w -41 0.367879 0
w 41 2.718282 0
w -42 0.367879 0
w 42 2.718282 0
w -44 0.367879 0
w 44 2.718282 0
w -45 0.367879 0
w 45 2.718282 0
w -46 0.367879 0
w 46 2.718282 0
w -47 0.367879 0
w 47 2.718282 0
w -48 0.367879 0
w 48 2.718282 0
w -49 0.367879 0
w 49 2.718282 0
w -50 0.367879 0
w 50 2.718282 0
w -52 0.367879 0
w 52 2.718282 0
w -53 0.367879 0
w 53 2.718282 0
w -54 0.367879 0
w 54 2.718282 0
w -56 0.367879 0
w 56 2.718282 0
w -57 0.367879 0
w 57 2.718282 0
w -58 0.367879 0
w 58 2.718282 0
w -59 0.367879 0
w 59 2.718282 0
w -60 0.367879 0
w 60 2.718282 0
w -62 0.367879 0
w 62 2.718282 0
w -63 0.367879 0
w 63 2.718282 0
w -64 0.367879 0
w 64 2.718282 0
w -65 0.367879 0
w 65 2.718282 0
w -66 0.367879 0
w 66 2.718282 0
w -67 0.367879 0
w 67 2.718282 0
w -69 0.367879 0
w 69 2.718282 0
w -70 0.367879 0
w 70 2.718282 0
w -71 0.367879 0
w 71 2.718282 0
w -72 0.367879 0
w 72 2.718282 0
w -73 0.367879 0
w 73 2.718282 0
w -75 0.367879 0
w 75 2.718282 0
w -76 0.367879 0
w 76 2.718282 0
w -78 0.367879 0
w 78 2.718282 0
w -79 0.367879 0
w 79 2.718282 0
w -80 0.367879 0
w 80 2.718282 0
w -82 0.367879 0
w 82 2.718282 0
w -84 0.367879 0
w 84 2.718282 0
w -85 0.367879 0
w 85 2.718282 0
w -86 0.367879 0
w 86 2.718282 0
w -87 0.367879 0
w 87 2.718282 0
w -88 0.367879 0
w 88 2.718282 0
w -90 0.367879 0
w 90 2.718282 0
w -91 0.367879 0
w 91 2.718282 0
w -92 0.367879 0
w 92 2.718282 0
w -93 0.367879 0
w 93 2.718282 0
w -94 0.367879 0
w 94 2.718282 0
w -96 0.367879 0
w 96 2.718282 0
w -97 0.367879 0
w 97 2.718282 0
w -99 0.367879 0
w 99 2.718282 0
w -100 0.367879 0
w 100 2.718282 0
w -101 0.367879 0
w 101 2.718282 0
w -102 0.367879 0
w 102 2.718282 0
w -104 0.367879 0
w 104 2.718282 0
w -105 0.367879 0
w 105 2.718282 0
w -107 0.367879 0
w 107 2.718282 0
w -109 0.367879 0
w 109 2.718282 0
w -110 0.367879 0
w 110 2.718282 0
w -112 0.367879 0
w 112 2.718282 0
w -113 0.367879 0
w 113 2.718282 0
w -115 0.367879 0
w 115 2.718282 0
w -116 0.367879 0
w 116 2.718282 0
w -117 0.367879 0
w 117 2.718282 0
w -118 0.367879 0
w 118 2.718282 0
w -120 0.367879 0
w 120 2.718282 0
w -121 0.367879 0
w 121 2.718282 0
w -123 0.367879 0
w 123 2.718282 0
w -124 0.367879 0
w 124 2.718282 0
w -125 0.367879 0
w 125 2.718282 0
w -126 0.367879 0
w 126 2.718282 0
w -129 0.367879 0
w 129 2.718282 0
w -131 0.367879 0
w 131 2.718282 0
w -134 0.367879 0
w 134 2.718282 0
w -135 0.367879 0
w 135 2.718282 0
w -136 0.367879 0
w 136 2.718282 0
w -137 0.367879 0
w 137 2.718282 0
w -138 0.367879 0
w 138 2.718282 0
w -140 0.367879 0
w 140 2.718282 0
w -141 0.367879 0
w 141 2.718282 0
w -142 0.367879 0
w 142 2.718282 0
w -143 0.367879 0
w 143 2.718282 0
w -144 0.367879 0
w 144 2.718282 0
w -146 0.367879 0
w 146 2.718282 0
w -147 0.367879 0
w 147 2.718282 0
w -148 0.367879 0
w 148 2.718282 0
w -149 0.367879 0
w 149 2.718282 0
w -151 0.367879 0
w 151 2.718282 0
w -152 0.367879 0
w 152 2.718282 0
w -154 0.367879 0
w 154 2.718282 0
w -156 0.367879 0
w 156 2.718282 0
w -158 0.367879 0
w 158 2.718282 0
w -159 0.367879 0
w 159 2.718282 0
w -160 0.367879 0
w 160 2.718282 0
w -161 0.367879 0
w 161 2.718282 0
w -163 0.367879 0
w 163 2.718282 0
w -164 0.367879 0
w 164 2.718282 0
w -165 0.367879 0
w 165 2.718282 0
w -166 0.367879 0
w 166 2.718282 0
w -168 0.367879 0
w 168 2.718282 0
w -169 0.367879 0
w 169 2.718282 0
w -170 0.367879 0
w 170 2.718282 0
w -171 0.367879 0
w 171 2.718282 0
w -173 0.367879 0
w 173 2.718282 0
w -176 0.367879 0
w 176 2.718282 0
w -177 0.367879 0
w 177 2.718282 0
w -178 0.367879 0
w 178 2.718282 0
w -179 0.367879 0
w 179 2.718282 0
w -180 0.367879 0
w 180 2.718282 0
w -182 0.367879 0
w 182 2.718282 0
w -183 0.367879 0
w 183 2.718282 0
w -184 0.367879 0
w 184 2.718282 0
w -186 0.367879 0
w 186 2.718282 0
w -187 0.367879 0
w 187 2.718282 0
w -189 0.367879 0
w 189 2.718282 0
w -190 0.367879 0
w 190 2.718282 0
w -193 0.367879 0
w 193 2.718282 0
w -194 0.367879 0
w 194 2.718282 0
w -195 0.367879 0
w 195 2.718282 0
w -197 0.367879 0
w 197 2.718282 0
w -198 0.367879 0
w 198 2.718282 0
w -199 0.367879 0
w 199 2.718282 0
w -201 0.367879 0
w 201 2.718282 0
w -202 0.367879 0
w 202 2.718282 0
w -206 0.367879 0
w 206 2.718282 0
w -207 0.367879 0
w 207 2.718282 0
w -208 0.367879 0
w 208 2.718282 0
w -209 0.367879 0
w 209 2.718282 0
w -210 0.367879 0
w 210 2.718282 0
w -212 0.367879 0
w 212 2.718282 0
w -213 0.367879 0
w 213 2.718282 0
w -214 0.367879 0
w 214 2.718282 0
w -217 0.367879 0
w 217 2.718282 0
w -219 0.367879 0
w 219 2.718282 0
w -221 0.367879 0
w 221 2.718282 0
w -225 0.367879 0
w 225 2.718282 0
w -228 0.367879 0
w 228 2.718282 0
w -229 0.367879 0
w 229 2.718282 0
w -231 0.367879 0
w 231 2.718282 0
w -233 0.367879 0
w 233 2.718282 0
w -234 0.367879 0
w 234 2.718282 0
w -236 0.367879 0
w 236 2.718282 0
w -238 0.367879 0
w 238 2.718282 0
w -241 0.367879 0
w 241 2.718282 0
w -243 0.367879 0
w 243 2.718282 0
w -245 0.367879 0
w 245 2.718282 0
w -247 0.367879 0
w 247 2.718282 0
w -248 0.367879 0
w 248 2.718282 0
w -250 0.367879 0
w 250 2.718282 0
w -252 0.367879 0
w 252 2.718282 0
w -256 0.367879 0
w 256 2.718282 0
2 1 98 0
2 -1 -98 0
-2 1 -98 0
-2 -1 98 0
3 1 103 0
3 -1 -103 0
-3 1 -103 0
-3 -1 103 0
4 1 139 0
4 -1 -139 0
-4 1 -139 0
-4 -1 139 0
5 1 230 0
5 -1 -230 0
-5 1 -230 0
-5 -1 230 0
6 1 265 0
6 -1 -265 0
-6 1 -265 0
-6 -1 265 0
8 7 181 0
8 -7 -181 0
-8 7 -181 0
-8 -7 181 0
9 7 188 0
9 -7 -188 0
-9 7 -188 0
-9 -7 188 0
10 7 205 0
10 -7 -205 0
-10 7 -205 0
-10 -7 205 0
11 7 222 0
11 -7 -222 0
-11 7 -222 0
-11 -7 222 0
13 12 55 0
13 -12 -55 0
-13 12 -55 0
-13 -12 55 0
14 12 128 0
14 -12 -128 0
-14 12 -128 0
-14 -12 128 0
15 12 191 0
15 -12 -191 0
-15 12 -191 0
-15 -12 191 0
17 16 43 0
17 -16 -43 0
-17 16 -43 0
-17 -16 43 0
18 16 145 0
18 -16 -145 0
-18 16 -145 0
-18 -16 145 0
19 16 185 0
19 -16 -185 0
-19 16 -185 0
-19 -16 185 0
20 16 255 0
20 -16 -255 0
-20 16 -255 0
-20 -16 255 0
21 16 262 0
21 -16 -262 0
-21 16 -262 0
-21 -16 262 0
22 16 264 0
22 -16 -264 0
-22 16 -264 0
-22 -16 264 0
23 16 267 0
23 -16 -267 0
-23 16 -267 0
-23 -16 267 0
25 24 103 0
25 -24 -103 0
-25 24 -103 0
-25 -24 103 0
26 24 223 0
26 -24 -223 0
-26 24 -223 0
-26 -24 223 0
27 24 232 0
27 -24 -232 0
-27 24 -232 0
-27 -24 232 0
28 24 267 0
28 -24 -267 0
-28 24 -267 0
-28 -24 267 0
29 24 268 0
29 -24 -268 0
-29 24 -268 0
-29 -24 268 0
31 30 127 0
31 -30 -127 0
-31 30 -127 0
-31 -30 127 0
32 30 196 0
32 -30 -196 0
-32 30 -196 0
-32 -30 196 0
33 30 222 0
33 -30 -222 0
-33 30 -222 0
-33 -30 222 0
34 30 263 0
34 -30 -263 0
-34 30 -263 0
-34 -30 263 0
36 35 175 0
36 -35 -175 0
-36 35 -175 0
-36 -35 175 0
37 35 226 0
37 -35 -226 0
-37 35 -226 0
-37 -35 226 0
38 35 255 0
38 -35 -255 0
-38 35 -255 0
-38 -35 255 0
40 39 111 0
40 -39 -111 0
-40 39 -111 0
-40 -39 111 0
41 39 130 0
41 -39 -130 0
-41 39 -130 0
-41 -39 130 0
42 39 267 0
42 -39 -267 0
-42 39 -267 0
-42 -39 267 0
44 43 61 0
44 -43 -61 0
-44 43 -61 0
-44 -43 61 0
45 43 111 0
45 -43 -111 0
-45 43 -111 0
-45 -43 111 0
46 43 122 0
46 -43 -122 0
-46 43 -122 0
-46 -43 122 0
47 43 155 0
47 -43 -155 0
-47 43 -155 0
-47 -43 155 0
48 43 191 0
48 -43 -191 0
-48 43 -191 0
-48 -43 191 0
49 43 215 0
49 -43 -215 0
-49 43 -215 0
-49 -43 215 0
50 43 246 0
50 -43 -246 0
-50 43 -246 0
-50 -43 246 0
52 51 133 0
52 -51 -133 0
-52 51 -133 0
-52 -51 133 0
53 51 242 0
53 -51 -242 0
-53 51 -242 0
-53 -51 242 0
54 51 258 0
54 -51 -258 0
-54 51 -258 0
-54 -51 258 0
56 55 167 0
56 -55 -167 0
-56 55 -167 0
-56 -55 167 0
57 55 230 0
57 -55 -230 0
-57 55 -230 0
-57 -55 230 0
58 55 257 0
58 -55 -257 0
-58 55 -257 0
-58 -55 257 0
59 55 261 0
59 -55 -261 0
-59 55 -261 0
-59 -55 261 0
60 55 263 0
60 -55 -263 0
-60 55 -263 0
-60 -55 263 0
62 61 174 0
62 -61 -174 0
-62 61 -174 0
-62 -61 174 0
63 61 215 0
63 -61 -215 0
-63 61 -215 0
-63 -61 215 0
64 61 223 0
64 -61 -223 0
-64 61 -223 0
-64 -61 223 0
65 61 255 0
65 -61 -255 0
-65 61 -255 0
-65 -61 255 0
66 61 262 0
66 -61 -262 0
-66 61 -262 0
-66 -61 262 0
67 61 269 0
67 -61 -269 0
-67 61 -269 0
-67 -61 269 0
69 68 111 0
69 -68 -111 0
-69 68 -111 0
-69 -68 111 0
70 68 192 0
70 -68 -192 0
-70 68 -192 0
-70 -68 192 0
71 68 215 0
71 -68 -215 0
-71 68 -215 0
-71 -68 215 0
72 68 226 0
72 -68 -226 0
-72 68 -226 0
-72 -68 226 0
73 68 244 0
73 -68 -244 0
-73 68 -244 0
-73 -68 244 0
75 74 127 0
75 -74 -127 0
-75 74 -127 0
-75 -74 127 0
76 74 155 0
76 -74 -155 0
-76 74 -155 0
-76 -74 155 0
78 77 139 0
78 -77 -139 0
-78 77 -139 0
-78 -77 139 0
79 77 167 0
79 -77 -167 0
-79 77 -167 0
-79 -77 167 0
80 77 246 0
80 -77 -246 0
-80 77 -246 0
-80 -77 246 0
82 81 258 0
82 -81 -258 0
-82 81 -258 0
-82 -81 258 0
84 83 89 0
84 -83 -89 0
-84 83 -89 0
-84 -83 89 0
85 83 192 0
85 -83 -192 0
-85 83 -192 0
-85 -83 192 0
86 83 224 0
86 -83 -224 0
-86 83 -224 0
-86 -83 224 0
87 83 232 0
87 -83 -232 0
-87 83 -232 0
-87 -83 232 0
88 83 254 0
88 -83 -254 0
-88 83 -254 0
-88 -83 254 0
90 89 167 0
90 -89 -167 0
-90 89 -167 0
-90 -89 167 0
91 89 175 0
91 -89 -175 0
-91 89 -175 0
-91 -89 175 0
92 89 192 0
92 -89 -192 0
-92 89 -192 0
-92 -89 192 0
93 89 244 0
93 -89 -244 0
-93 89 -244 0
-93 -89 244 0
94 89 263 0
94 -89 -263 0
-94 89 -263 0
-94 -89 263 0
96 95 155 0
96 -95 -155 0
-96 95 -155 0
-96 -95 155 0
97 95 260 0
97 -95 -260 0
-97 95 -260 0
-97 -95 260 0
99 98 133 0
99 -98 -133 0
-99 98 -133 0
-99 -98 133 0
100 98 192 0
100 -98 -192 0
-100 98 -192 0
-100 -98 192 0
101 98 235 0
101 -98 -235 0
-101 98 -235 0
-101 -98 235 0
102 98 267 0
102 -98 -267 0
-102 98 -267 0
-102 -98 267 0
104 103 181 0
104 -103 -181 0
-104 103 -181 0
-104 -103 181 0
105 103 263 0
105 -103 -263 0
-105 103 -263 0
-105 -103 263 0
107 106 157 0
107 -106 -157 0
-107 106 -157 0
-107 -106 157 0
109 108 216 0
109 -108 -216 0
-109 108 -216 0
-109 -108 216 0
110 108 266 0
110 -108 -266 0
-110 108 -266 0
-110 -108 266 0
112 111 188 0
112 -111 -188 0
-112 111 -188 0
-112 -111 188 0
113 111 246 0
113 -111 -246 0
-113 111 -246 0
-113 -111 246 0
115 114 145 0
115 -114 -145 0
-115 114 -145 0
-115 -114 145 0
116 114 167 0
116 -114 -167 0
-116 114 -167 0
-116 -114 167 0
117 114 196 0
117 -114 -196 0
-117 114 -196 0
-117 -114 196 0
118 114 265 0
118 -114 -265 0
-118 114 -265 0
-118 -114 265 0
120 119 253 0
120 -119 -253 0
-120 119 -253 0
-120 -119 253 0
121 119 255 0
121 -119 -255 0
-121 119 -255 0
-121 -119 255 0
123 122 155 0
123 -122 -155 0
-123 122 -155 0
-123 -122 155 0
124 122 172 0
124 -122 -172 0
-124 122 -172 0
-124 -122 172 0
125 122 215 0
125 -122 -215 0
-125 122 -215 0
-125 -122 215 0
126 122 240 0
126 -122 -240 0
-126 122 -240 0
-126 -122 240 0
129 128 218 0
129 -128 -218 0
-129 128 -218 0
-129 -128 218 0
131 130 174 0
131 -130 -174 0
-131 130 -174 0
-131 -130 174 0
134 133 155 0
134 -133 -155 0
-134 133 -155 0
-134 -133 155 0
135 133 203 0
135 -133 -203 0
-135 133 -203 0
-135 -133 203 0
136 133 244 0
136 -133 -244 0
-136 133 -244 0
-136 -133 244 0
137 133 249 0
137 -133 -249 0
-137 133 -249 0
-137 -133 249 0
138 133 269 0
138 -133 -269 0
-138 133 -269 0
-138 -133 269 0
140 139 153 0
140 -139 -153 0
-140 139 -153 0
-140 -139 153 0
141 139 222 0
141 -139 -222 0
-141 139 -222 0
-141 -139 222 0
142 139 230 0
142 -139 -230 0
-142 139 -230 0
-142 -139 230 0
143 139 242 0
143 -139 -242 0
-143 139 -242 0
-143 -139 242 0
144 139 267 0
144 -139 -267 0
-144 139 -267 0
-144 -139 267 0
146 145 226 0
146 -145 -226 0
-146 145 -226 0
-146 -145 226 0
147 145 230 0
147 -145 -230 0
-147 145 -230 0
-147 -145 230 0
148 145 239 0
148 -145 -239 0
-148 145 -239 0
-148 -145 239 0
149 145 260 0
149 -145 -260 0
-149 145 -260 0
-149 -145 260 0
151 150 205 0
151 -150 -205 0
-151 150 -205 0
-151 -150 205 0
152 150 230 0
152 -150 -230 0
-152 150 -230 0
-152 -150 230 0
154 153 232 0
154 -153 -232 0
-154 153 -232 0
-154 -153 232 0
156 155 181 0
156 -155 -181 0
-156 155 -181 0
-156 -155 181 0
158 157 185 0
158 -157 -185 0
-158 157 -185 0
-158 -157 185 0
159 157 216 0
159 -157 -216 0
-159 157 -216 0
-159 -157 216 0
160 157 251 0
160 -157 -251 0
-160 157 -251 0
-160 -157 251 0
161 157 257 0
161 -157 -257 0
-161 157 -257 0
-161 -157 257 0
163 162 205 0
163 -162 -205 0
-163 162 -205 0
-163 -162 205 0
164 162 244 0
164 -162 -244 0
-164 162 -244 0
-164 -162 244 0
165 162 255 0
165 -162 -255 0
-165 162 -255 0
-165 -162 255 0
166 162 268 0
166 -162 -268 0
-166 162 -268 0
-166 -162 268 0
168 167 205 0
168 -167 -205 0
-168 167 -205 0
-168 -167 205 0
169 167 224 0
169 -167 -224 0
-169 167 -224 0
-169 -167 224 0
170 167 240 0
170 -167 -240 0
-170 167 -240 0
-170 -167 240 0
171 167 269 0
171 -167 -269 0
-171 167 -269 0
-171 -167 269 0
173 172 203 0
173 -172 -203 0
-173 172 -203 0
-173 -172 203 0
176 175 191 0
176 -175 -191 0
-176 175 -191 0
-176 -175 191 0
177 175 196 0
177 -175 -196 0
-177 175 -196 0
-177 -175 196 0
178 175 203 0
178 -175 -203 0
-178 175 -203 0
-178 -175 203 0
179 175 215 0
179 -175 -215 0
-179 175 -215 0
-179 -175 215 0
180 175 257 0
180 -175 -257 0
-180 175 -257 0
-180 -175 257 0
182 181 185 0
182 -181 -185 0
-182 181 -185 0
-182 -181 185 0
183 181 237 0
183 -181 -237 0
-183 181 -237 0
-183 -181 237 0
184 181 264 0
184 -181 -264 0
-184 181 -264 0
-184 -181 264 0
186 185 226 0
186 -185 -226 0
-186 185 -226 0
-186 -185 226 0
187 185 262 0
187 -185 -262 0
-187 185 -262 0
-187 -185 262 0
189 188 222 0
189 -188 -222 0
-189 188 -222 0
-189 -188 222 0
190 188 254 0
190 -188 -254 0
-190 188 -254 0
-190 -188 254 0
193 192 240 0
193 -192 -240 0
-193 192 -240 0
-193 -192 240 0
194 192 244 0
194 -192 -244 0
-194 192 -244 0
-194 -192 244 0
195 192 246 0
195 -192 -246 0
-195 192 -246 0
-195 -192 246 0
197 196 232 0
197 -196 -232 0
-197 196 -232 0
-197 -196 232 0
198 196 240 0
198 -196 -240 0
-198 196 -240 0
-198 -196 240 0
199 196 262 0
199 -196 -262 0
-199 196 -262 0
-199 -196 262 0
201 200 216 0
201 -200 -216 0
-201 200 -216 0
-201 -200 216 0
202 200 244 0
202 -200 -244 0
-202 200 -244 0
-202 -200 244 0
206 205 211 0
206 -205 -211 0
-206 205 -211 0
-206 -205 211 0
207 205 222 0
207 -205 -222 0
-207 205 -222 0
-207 -205 222 0
208 205 226 0
208 -205 -226 0
-208 205 -226 0
-208 -205 226 0
209 205 230 0
209 -205 -230 0
-209 205 -230 0
-209 -205 230 0
210 205 258 0
210 -205 -258 0
-210 205 -258 0
-210 -205 258 0
212 211 244 0
212 -211 -244 0
-212 211 -244 0
-212 -211 244 0
213 211 246 0
213 -211 -246 0
-213 211 -246 0
-213 -211 246 0
214 211 251 0
214 -211 -251 0
-214 211 -251 0
-214 -211 251 0
217 216 261 0
217 -216 -261 0
-217 216 -261 0
-217 -216 261 0
219 218 239 0
219 -218 -239 0
-219 218 -239 0
-219 -218 239 0
221 220 240 0
221 -220 -240 0
-221 220 -240 0
-221 -220 240 0
225 224 235 0
225 -224 -235 0
-225 224 -235 0
-225 -224 235 0
228 227 232 0
228 -227 -232 0
-228 227 -232 0
-228 -227 232 0
229 227 269 0
229 -227 -269 0
-229 227 -269 0
-229 -227 269 0
231 230 262 0
231 -230 -262 0
-231 230 -262 0
-231 -230 262 0
233 232 244 0
233 -232 -244 0
-233 232 -244 0
-233 -232 244 0
234 232 255 0
234 -232 -255 0
-234 232 -255 0
-234 -232 255 0
236 235 264 0
236 -235 -264 0
-236 235 -264 0
-236 -235 264 0
238 237 251 0
238 -237 -251 0
-238 237 -251 0
-238 -237 251 0
241 240 258 0
241 -240 -258 0
-241 240 -258 0
-241 -240 258 0
243 242 246 0
243 -242 -246 0
-243 242 -246 0
-243 -242 246 0
245 244 259 0
245 -244 -259 0
-245 244 -259 0
-245 -244 259 0
247 246 259 0
247 -246 -259 0
-247 246 -259 0
-247 -246 259 0
248 246 268 0
248 -246 -268 0
-248 246 -268 0
-248 -246 268 0
250 249 262 0
250 -249 -262 0
-250 249 -262 0
-250 -249 262 0
252 251 254 0
252 -251 -254 0
-252 251 -254 0
-252 -251 254 0
256 255 268 0
256 -255 -268 0
-256 255 -268 0
-256 -255 268 0
